Instance: E045-04f.dat
Class:  3
   44 --- number of customers (no depot)
   10 --- number of vehicles
   87 --- number of items
Capacity - height - width of vehicles
  2010     40     20
Node - x - y - demand
    0     0.0     0.0     0.0
    1     3.0     5.0    33.0
    2     2.5     9.0    15.0
    3    48.0    16.0    10.0
    4    48.0    17.0    40.0
    5    69.0    16.0    15.0
    6    70.0    16.0     5.0
    7    64.0    13.0    77.0
    8     3.0   -22.0   435.0
    9     2.5     1.0   165.0
   10   -13.0    11.5   120.0
   11   -20.0    45.0    65.0
   12    -9.0    52.0    23.0
   13    -8.5    53.0    18.0
   14    -8.0    52.0   550.0
   15     2.0     2.0    78.0
   16    -2.0     9.0   627.0
   17   -10.0    20.0     9.0
   18   -20.0    19.0    96.0
   19   -15.0   -21.0   116.0
   20    -5.0    -9.0   116.0
   21    -4.5    -9.0    83.0
   22   -52.0   -36.0    41.0
   23   -53.0   -36.0   645.0
   24     0.0     0.0   694.0
   25   -30.0   -18.0   573.0
   26   -51.0   -35.0     1.0
   27    81.0     9.0   181.0
   28    84.0   -99.0   106.0
   29    82.0    -6.0    52.0
   30    40.0   -12.0   117.0
   31    50.0    -7.0    52.0
   32    51.0    -8.0  1300.0
   33    63.0   -17.0    57.0
   34    45.0    -1.0    28.0
   35    54.0     8.5    84.0
   36    29.0     4.0     1.0
   37    21.0     3.0    54.0
   38    22.0     2.0    19.0
   39    39.0    -3.0    88.0
   40    39.5    -3.0    41.0
   41    40.0   -11.0   238.0
   42    28.0    -2.0    66.0
   43    24.0   -18.0    44.0
   44    24.0   -19.0    42.0
Node - number of items - h - w for each item
    0   0
    1   2    6   11   11    5
    2   3   14    6   27    4   15    3
    3   2   16    5   22    4
    4   3    7   12   12    5   29    4
    5   2    8   16    5   10
    6   2   10    5   24    3
    7   1    6    6
    8   2    7   14   20    4
    9   2    5    8   14    4
   10   2    6   11    5   10
   11   2   13    8   10    8
   12   2   26    3   26    2
   13   3   10    7   27    3   19    3
   14   3    5   13   12    4   30    3
   15   3    7    7    6    6   19    3
   16   3   16    8   12    5   28    2
   17   1    5    7
   18   1    8   16
   19   3   13    6    8   10    7    6
   20   1    8   10
   21   3   15    5   19    3   17    3
   22   3    4    9   10    5   28    3
   23   1   15    6
   24   1   15    5
   25   3    7    9   19    2   19    2
   26   3   14    6    7    6   25    3
   27   2    7   11   10    5
   28   1    8    8
   29   1   25    3
   30   1    7   15
   31   2    7   10   27    3
   32   3   14    7   20    3   28    2
   33   1    9    8
   34   3   14    8    6    8   26    3
   35   1    4   11
   36   1    6   10
   37   2    5   15    6    7
   38   3   23    3   20    3   25    2
   39   1    7   13
   40   1    7    9
   41   2    7   13   11    5
   42   1   14    4
   43   3    4   14   12    7   15    6
   44   1    8    7
